language ESSENCE' 1.0

letting jobs = 102
letting horizon = 771
letting resourcesRenew = 2
letting resourcesNonrenew = 2
letting resourceLimits = [44, 46, 526, 531]
letting successors = [[2, 3, 4, 5, 6, 7, 8, 9, 10, 11, 12, 14, 15, 16, 17, 19, 20, 21, 22, 23, 24, 25, 26, 28, 30, 33, 34, 41], [101, 82, 63, 60, 57, 56, 52, 51, 50, 46, 44, 39, 38, 36, 31, 13], [91, 85, 83, 82, 71, 68, 67, 61, 60, 56, 52, 51, 49, 47, 45, 44, 43, 40, 39], [100, 87, 86, 69, 61, 58, 57, 55, 52, 51, 49, 48, 44, 37, 36, 31, 29], [100, 95, 86, 83, 71, 67, 65, 64, 62, 59, 50, 49, 48, 46, 40, 18], [101, 100, 96, 95, 82, 68, 63, 61, 57, 49, 47, 45, 39, 38, 36], [101, 100, 90, 87, 85, 83, 82, 67, 66, 62, 61, 54, 53, 48, 42, 27], [96, 92, 89, 84, 83, 82, 69, 68, 59, 57, 52, 50, 45, 38, 32], [100, 97, 96, 91, 87, 86, 84, 83, 71, 69, 67, 61, 59, 58, 53, 47, 44, 42, 40], [99, 95, 89, 86, 82, 69, 57, 53, 48, 39, 36], [100, 98, 94, 91, 89, 87, 86, 85, 84, 83, 82, 70, 69, 68, 62, 55, 53, 44, 42], [93, 91, 90, 88, 82, 69, 68, 67, 66, 64, 62, 52, 48, 35], [100, 90, 89, 84, 70, 65, 62, 61, 48, 29], [100, 99, 97, 95, 89, 88, 86, 85, 84, 83, 79, 69, 63, 61, 48, 40], [101, 100, 95, 89, 87, 84, 69, 66, 65, 58, 55, 53, 50, 48], [100, 99, 95, 91, 90, 89, 82, 65, 58, 57, 55, 48, 39], [101, 95, 94, 92, 85, 83, 82, 80, 59, 48, 38], [98, 91, 90, 89, 85, 84, 82, 76, 75, 74, 68, 63, 61, 54, 52], [99, 96, 94, 93, 92, 91, 89, 88, 85, 83, 62, 61, 60, 57, 44], [100, 99, 98, 96, 91, 90, 86, 67, 66, 62, 51, 44], [99, 98, 96, 95, 93, 90, 85, 76, 65, 61, 52, 49], [100, 95, 94, 93, 85, 84, 82, 67, 66, 65, 49, 48], [96, 92, 90, 83, 76, 66, 65, 63, 52, 42], [99, 98, 95, 93, 92, 91, 90, 89, 88, 82, 78, 77, 76, 75, 71, 69, 68, 67, 61], [100, 99, 97, 96, 93, 92, 89, 86, 84, 80, 79, 72, 44], [97, 94, 92, 87, 81, 80, 79, 76, 71, 70, 66, 65, 42], [98, 97, 94, 93, 91, 89, 86, 81, 75, 69, 68, 65, 57, 55], [95, 93, 90, 86, 77, 68, 61, 52, 48], [97, 96, 94, 91, 81, 68, 53, 42], [90, 83, 66, 61, 55, 52, 48], [99, 98, 97, 96, 95, 93, 92, 84, 83, 81, 80, 78, 77, 76, 75, 74, 73, 72], [100, 99, 98, 95, 93, 90, 88, 80, 79, 78, 77, 76, 75, 74, 72, 70, 66], [101, 98, 97, 96, 94, 93, 90, 81, 80, 79, 78, 77, 76, 75, 74, 73, 72], [98, 97, 96, 93, 91, 89, 87, 81, 80, 79, 78, 77, 76, 73, 72, 65], [100, 99, 97, 95, 94, 81, 79, 78, 77, 75, 65, 61], [97, 93, 90, 85, 83, 81, 78, 77, 73, 72, 71, 67], [97, 95, 94, 91, 77, 76, 73, 65, 56], [98, 97, 93, 91, 86, 76, 75, 73, 72, 67, 65], [97, 94, 93, 84, 76, 75, 72, 70, 62], [93, 92, 90, 81, 78, 77, 74, 72, 57], [97, 96, 95, 93, 87, 73, 72, 68, 67], [99, 95, 93, 78, 77, 75, 74, 73, 72], [100, 99, 96, 95, 94, 81, 76, 75, 74], [95, 81, 78, 77, 76, 75, 73, 65], [99, 87, 86, 80, 75, 74, 72, 66], [92, 91, 87, 79, 77, 69, 66], [98, 92, 79, 78, 77, 72, 66], [98, 96, 81, 78, 76, 75, 72], [89, 88, 81, 78, 77, 75, 74], [94, 91, 85, 81, 76, 75, 72], [94, 92, 80, 79, 78, 76, 72], [97, 94, 80, 79, 78, 73], [93, 92, 88, 80, 78, 75], [99, 96, 93, 81, 78, 72], [79, 77, 76, 74, 72], [96, 79, 75, 72], [80, 76, 73], [94, 93, 77], [93, 77, 74], [81, 80, 76], [73, 72], [80, 74], [87, 81], [92, 72], [74], [73], [79], [79], [80], [73], [74], [102], [102], [102], [102], [102], [102], [102], [102], [102], [102], [102], [102], [102], [102], [102], [102], [102], [102], [102], [102], [102], [102], [102], [102], [102], [102], [102], [102], [102], [102], []]
letting durations = [[0], [8, 9, 10], [1, 5, 10], [1, 3, 4], [5, 7, 9], [3, 7, 8], [7, 8, 9], [1, 2, 7], [2, 7, 8], [4, 8, 8], [1, 2, 7], [4, 8, 8], [6, 7, 9], [5, 8, 10], [2, 4, 10], [1, 8, 9], [5, 8, 9], [3, 5, 10], [2, 2, 3], [5, 8, 9], [5, 6, 10], [4, 6, 9], [1, 3, 3], [2, 2, 3], [4, 5, 6], [3, 4, 9], [1, 5, 9], [3, 4, 6], [4, 5, 6], [4, 6, 7], [2, 4, 7], [6, 7, 8], [3, 3, 6], [6, 7, 9], [1, 2, 4], [3, 4, 5], [6, 8, 10], [4, 6, 10], [2, 3, 9], [3, 4, 7], [2, 3, 4], [1, 4, 9], [5, 8, 10], [1, 6, 10], [6, 7, 8], [7, 8, 9], [5, 6, 9], [2, 3, 6], [2, 6, 6], [1, 5, 7], [4, 6, 10], [4, 8, 9], [1, 2, 8], [2, 3, 5], [2, 4, 8], [2, 5, 6], [6, 8, 9], [5, 6, 9], [1, 8, 9], [1, 2, 2], [4, 4, 5], [1, 3, 5], [4, 6, 8], [6, 9, 10], [2, 7, 9], [2, 4, 8], [4, 5, 9], [2, 4, 4], [1, 2, 3], [1, 3, 8], [5, 7, 8], [3, 4, 5], [1, 6, 7], [2, 3, 8], [3, 5, 7], [1, 2, 9], [2, 7, 8], [2, 6, 9], [1, 2, 4], [6, 7, 7], [5, 9, 10], [3, 5, 10], [4, 6, 7], [4, 5, 7], [4, 6, 8], [1, 4, 6], [4, 9, 10], [1, 2, 10], [3, 4, 10], [2, 7, 8], [3, 3, 9], [1, 7, 10], [3, 5, 6], [3, 7, 10], [2, 8, 10], [2, 3, 6], [1, 7, 8], [2, 3, 5], [6, 7, 8], [6, 9, 10], [4, 5, 9], [0]]
letting resourceUsage = [[[0, 0, 0, 0]], [[0, 10, 4, 7], [0, 8, 4, 7], [6, 0, 3, 6]], [[0, 10, 7, 4], [5, 0, 6, 3], [5, 0, 6, 2]], [[2, 0, 6, 5], [0, 8, 6, 4], [1, 0, 6, 3]], [[0, 7, 3, 5], [0, 7, 3, 4], [0, 7, 1, 4]], [[8, 0, 6, 10], [7, 0, 3, 8], [6, 0, 1, 7]], [[0, 7, 4, 5], [0, 4, 4, 5], [0, 4, 3, 5]], [[8, 0, 7, 10], [6, 0, 5, 6], [0, 9, 3, 6]], [[8, 0, 10, 10], [6, 0, 8, 9], [2, 0, 8, 8]], [[0, 7, 10, 6], [3, 0, 7, 4], [0, 4, 7, 2]], [[9, 0, 4, 10], [0, 5, 3, 9], [9, 0, 2, 9]], [[0, 5, 7, 7], [5, 0, 7, 5], [0, 2, 6, 4]], [[2, 0, 7, 8], [1, 0, 4, 7], [0, 3, 4, 7]], [[5, 0, 10, 8], [0, 4, 10, 8], [5, 0, 10, 5]], [[0, 6, 5, 3], [0, 4, 3, 3], [5, 0, 1, 1]], [[3, 0, 4, 10], [0, 5, 4, 4], [2, 0, 3, 2]], [[0, 8, 8, 6], [0, 5, 8, 5], [0, 3, 4, 3]], [[6, 0, 7, 9], [0, 4, 6, 6], [1, 0, 5, 6]], [[4, 0, 1, 9], [0, 3, 1, 7], [0, 1, 1, 7]], [[6, 0, 5, 3], [6, 0, 3, 3], [0, 4, 1, 3]], [[9, 0, 2, 6], [0, 4, 2, 5], [5, 0, 1, 4]], [[0, 8, 8, 9], [4, 0, 6, 7], [3, 0, 5, 4]], [[6, 0, 2, 9], [5, 0, 1, 7], [0, 5, 1, 6]], [[0, 9, 7, 6], [5, 0, 7, 5], [5, 0, 7, 4]], [[6, 0, 10, 5], [2, 0, 9, 5], [1, 0, 9, 4]], [[7, 0, 6, 6], [0, 7, 4, 3], [0, 7, 4, 1]], [[0, 5, 7, 9], [4, 0, 7, 8], [0, 4, 7, 4]], [[9, 0, 6, 2], [0, 6, 6, 1], [5, 0, 6, 1]], [[0, 8, 8, 2], [0, 6, 7, 1], [0, 4, 7, 1]], [[4, 0, 8, 6], [0, 6, 7, 5], [0, 6, 6, 4]], [[3, 0, 4, 10], [3, 0, 3, 8], [0, 4, 2, 8]], [[0, 4, 4, 6], [2, 0, 4, 6], [1, 0, 2, 6]], [[0, 9, 3, 5], [2, 0, 2, 5], [2, 0, 1, 2]], [[9, 0, 2, 9], [7, 0, 2, 7], [6, 0, 2, 5]], [[0, 8, 3, 6], [4, 0, 3, 6], [2, 0, 3, 5]], [[9, 0, 8, 4], [7, 0, 6, 2], [6, 0, 6, 2]], [[7, 0, 6, 3], [0, 5, 6, 3], [6, 0, 5, 2]], [[0, 6, 10, 8], [0, 5, 7, 6], [3, 0, 4, 6]], [[0, 4, 6, 6], [0, 4, 6, 5], [3, 0, 6, 5]], [[4, 0, 7, 7], [3, 0, 6, 7], [3, 0, 5, 7]], [[9, 0, 9, 5], [9, 0, 7, 5], [0, 5, 6, 5]], [[8, 0, 3, 6], [8, 0, 3, 5], [5, 0, 3, 5]], [[7, 0, 9, 9], [6, 0, 9, 6], [2, 0, 8, 6]], [[1, 0, 8, 6], [1, 0, 7, 5], [0, 1, 3, 4]], [[0, 9, 7, 5], [0, 8, 7, 5], [1, 0, 6, 5]], [[6, 0, 8, 7], [3, 0, 5, 6], [3, 0, 5, 5]], [[0, 1, 6, 7], [0, 1, 4, 6], [1, 0, 3, 2]], [[0, 9, 4, 8], [3, 0, 4, 6], [2, 0, 4, 6]], [[0, 6, 7, 5], [6, 0, 4, 4], [0, 4, 1, 1]], [[0, 6, 6, 10], [5, 0, 5, 8], [0, 5, 5, 6]], [[0, 2, 7, 3], [0, 2, 3, 2], [0, 2, 3, 1]], [[5, 0, 4, 9], [2, 0, 4, 7], [2, 0, 4, 2]], [[7, 0, 5, 10], [7, 0, 4, 9], [7, 0, 3, 9]], [[0, 9, 6, 8], [2, 0, 5, 6], [0, 7, 5, 6]], [[1, 0, 3, 2], [0, 7, 2, 2], [1, 0, 1, 2]], [[0, 4, 7, 6], [0, 4, 4, 5], [7, 0, 1, 5]], [[7, 0, 8, 5], [0, 6, 8, 4], [0, 6, 8, 3]], [[5, 0, 9, 6], [4, 0, 7, 6], [3, 0, 6, 6]], [[0, 9, 9, 5], [4, 0, 8, 5], [2, 0, 8, 5]], [[0, 7, 7, 10], [0, 5, 6, 10], [6, 0, 3, 10]], [[8, 0, 6, 5], [0, 3, 4, 3], [2, 0, 4, 3]], [[0, 8, 6, 9], [0, 5, 5, 8], [2, 0, 4, 8]], [[6, 0, 8, 4], [5, 0, 6, 3], [0, 3, 6, 3]], [[7, 0, 8, 4], [0, 9, 7, 3], [0, 9, 7, 2]], [[0, 5, 6, 6], [7, 0, 4, 4], [0, 5, 4, 1]], [[7, 0, 7, 5], [0, 2, 7, 5], [0, 1, 7, 3]], [[4, 0, 9, 5], [4, 0, 9, 4], [0, 6, 9, 2]], [[0, 4, 9, 5], [5, 0, 7, 5], [0, 4, 3, 5]], [[0, 7, 10, 3], [0, 3, 9, 2], [1, 0, 9, 1]], [[9, 0, 8, 3], [0, 8, 5, 3], [0, 7, 4, 3]], [[4, 0, 6, 3], [0, 6, 6, 3], [0, 4, 4, 1]], [[2, 0, 9, 6], [2, 0, 9, 5], [2, 0, 9, 4]], [[8, 0, 7, 5], [0, 5, 4, 4], [4, 0, 1, 2]], [[2, 0, 2, 6], [2, 0, 2, 4], [2, 0, 2, 3]], [[0, 6, 8, 4], [7, 0, 6, 3], [0, 4, 5, 3]], [[10, 0, 7, 1], [6, 0, 4, 1], [0, 8, 2, 1]], [[5, 0, 5, 9], [3, 0, 3, 9], [0, 8, 1, 9]], [[0, 8, 6, 6], [2, 0, 6, 4], [0, 4, 6, 4]], [[9, 0, 5, 5], [5, 0, 5, 4], [0, 3, 5, 4]], [[0, 8, 2, 9], [0, 7, 2, 6], [4, 0, 2, 3]], [[9, 0, 6, 8], [0, 6, 6, 5], [0, 3, 6, 4]], [[7, 0, 4, 6], [0, 7, 4, 6], [0, 7, 4, 4]], [[0, 6, 8, 10], [3, 0, 7, 8], [0, 4, 6, 8]], [[0, 10, 7, 3], [0, 8, 6, 2], [5, 0, 5, 2]], [[0, 2, 6, 6], [0, 2, 6, 5], [3, 0, 3, 4]], [[2, 0, 4, 4], [1, 0, 3, 4], [1, 0, 3, 3]], [[0, 9, 6, 8], [7, 0, 6, 5], [0, 8, 6, 5]], [[0, 8, 5, 8], [0, 5, 2, 7], [5, 0, 1, 6]], [[0, 10, 6, 7], [5, 0, 4, 6], [0, 5, 4, 6]], [[0, 7, 7, 8], [3, 0, 6, 7], [0, 4, 6, 7]], [[10, 0, 3, 6], [0, 3, 2, 6], [7, 0, 1, 4]], [[7, 0, 8, 4], [6, 0, 4, 3], [6, 0, 2, 3]], [[0, 5, 4, 2], [4, 0, 3, 1], [3, 0, 2, 1]], [[3, 0, 9, 7], [2, 0, 7, 4], [0, 4, 7, 3]], [[1, 0, 3, 5], [1, 0, 3, 4], [1, 0, 3, 3]], [[7, 0, 4, 7], [6, 0, 3, 5], [6, 0, 3, 2]], [[0, 4, 3, 10], [0, 3, 1, 9], [4, 0, 1, 7]], [[0, 2, 10, 9], [0, 1, 9, 6], [0, 1, 9, 5]], [[0, 6, 8, 9], [0, 5, 5, 6], [8, 0, 2, 6]], [[0, 8, 8, 10], [0, 7, 6, 6], [5, 0, 6, 4]], [[0, 8, 8, 7], [0, 5, 6, 6], [9, 0, 4, 5]], [[0, 0, 0, 0]]]
